p cnf 10 20
10 5 -3 0
-2 -1 7 0
-5 1 10 0
-1 -10 4 0
9 -1 3 0
6 -9 -8 0
2 -6 -3 0
4 -9 10 0
-10 -4 9 0
-9 3 -10 0
-7 2 8 0
-10 1 -5 0
7 3 -1 0
-1 -7 2 0
-1 4 -2 0
-4 -3 -6 0
-4 -7 -6 0
10 -1 -6 0
8 -9 -7 0
3 -2 -10 0
